50
    1   665   655
    2   266   256
    3   906   896
    4   902   892
    5   356   346
    6   396   386
    7   937   927
    8   292   282
    9   518   508
   10    77    67
   11   175   165
   12   601   591
   13   991   981
   14    29    19
   15   105    95
   16   675   665
   17   903   893
   18   122   112
   19   832   822
   20   202   192
   21  1005   995
   22   251   241
   23   689   679
   24    19     9
   25   606   596
   26   151   141
   27   266   256
   28  1010  1000
   29   238   228
   30   851   841
   31   538   528
   32   404   394
   33   655   645
   34    34    24
   35   198   188
   36   994   984
   37   971   961
   38   742   732
   39   900   890
   40   849   839
   41   287   277
   42   149   139
   43    21    11
   44   495   485
   45   166   156
   46   152   142
   47   524   514
   48   568   558
   49   966   956
   50   845   835
20828
